; --full-saturate-quant --inst-when=full-last-call --inst-no-entail --term-db-mode=relevant --random-seed=1 --lang=smt2 --tlimit 200
;(set-option :produce-unsat-cores true)
(set-logic ALL_SUPPORTED)
(declare-sort A$ 0)
(declare-sort B$ 0)
(declare-sort A_set$ 0)
(declare-sort A_bool_fun$ 0)
(declare-sort A_a_bool_fun_fun$ 0)
(declare-sort A_b_rbt_bool_fun$ 0)
(declare-datatypes () ((Color$ (r$) (b$))
  (A_b_rbt$ (empty$) (branch$ (select$ Color$) (selecta$ A_b_rbt$) (selectb$ A$) (selectc$ B$) (selectd$ A_b_rbt$)))
  (A_list$ (nil$) (cons$ (hd$ A$) (tl$ A_list$)))
  (B_option$ (none$) (some$ (the$ B$)))))
(declare-fun a$ () A_b_rbt$)
(declare-fun k$ () A$)
(declare-fun v$ () A$)
(declare-fun x$ () B$)
(declare-fun b$a () A_b_rbt$)
(declare-fun set$ (A_list$) A_set$)
(declare-fun keys$ (A_b_rbt$) A_list$)
(declare-fun less$ () A_a_bool_fun_fun$)
(declare-fun is_rbt$ (A_a_bool_fun_fun$ A_b_rbt$) Bool)
(declare-fun member$ (A$ A_set$) Bool)
(declare-fun balance$ (A_b_rbt$ A$ B$ A_b_rbt$) A_b_rbt$)
(declare-fun fun_app$ (A_b_rbt_bool_fun$ A_b_rbt$) Bool)
(declare-fun lexordp$ (A_a_bool_fun_fun$ A_list$ A_list$) Bool)
(declare-fun fun_app$a (A_bool_fun$ A$) Bool)
(declare-fun fun_app$b (A_a_bool_fun_fun$ A$) A_bool_fun$)
(declare-fun lessThan$ (A_a_bool_fun_fun$ A$) A_set$)
(declare-fun rbt_less$ (A_a_bool_fun_fun$ A$) A_b_rbt_bool_fun$)
(declare-fun lexordp_eq$ (A_a_bool_fun_fun$ A_list$ A_list$) Bool)
(declare-fun rbt_lookup$ (A_a_bool_fun_fun$ A_b_rbt$ A$) B_option$)
(declare-fun rbt_sorted$ (A_a_bool_fun_fun$ A_b_rbt$) Bool)
(declare-fun greaterThan$ (A_a_bool_fun_fun$ A$) A_set$)
(declare-fun rbt_greater$ (A_a_bool_fun_fun$ A$ A_b_rbt$) Bool)
(declare-fun greaterThanLessThan$ (A_a_bool_fun_fun$ A$ A$) A_set$)
(assert (! (not (= (fun_app$ (rbt_less$ less$ v$) (balance$ a$ k$ x$ b$a)) (and (fun_app$ (rbt_less$ less$ v$) a$) (and (fun_app$ (rbt_less$ less$ v$) b$a) (fun_app$a (fun_app$b less$ k$) v$))))) :named a0))
(assert (! (forall ((?v0 A$) (?v1 A$) (?v2 A$)) (=> (and (fun_app$a (fun_app$b less$ ?v0) ?v1) (= ?v1 ?v2)) (fun_app$a (fun_app$b less$ ?v0) ?v2))) :named a1))
(assert (! (forall ((?v0 A$) (?v1 A$) (?v2 A$)) (=> (and (= ?v0 ?v1) (fun_app$a (fun_app$b less$ ?v1) ?v2)) (fun_app$a (fun_app$b less$ ?v0) ?v2))) :named a2))
(assert (! (forall ((?v0 A$) (?v1 A_b_rbt$) (?v2 A$) (?v3 B$) (?v4 A_b_rbt$)) (= (rbt_greater$ less$ ?v0 (balance$ ?v1 ?v2 ?v3 ?v4)) (and (rbt_greater$ less$ ?v0 ?v1) (and (rbt_greater$ less$ ?v0 ?v4) (fun_app$a (fun_app$b less$ ?v0) ?v2))))) :named a3))
(assert (! (forall ((?v0 A_list$)) (lexordp_eq$ less$ ?v0 ?v0)) :named a4))
(assert (! (forall ((?v0 A$) (?v1 A$) (?v2 A$)) (= (member$ ?v0 (greaterThanLessThan$ less$ ?v1 ?v2)) (and (fun_app$a (fun_app$b less$ ?v1) ?v0) (fun_app$a (fun_app$b less$ ?v0) ?v2)))) :named a5))
(assert (! (forall ((?v0 A_list$)) (=> (forall ((?v1 A$)) (not (fun_app$a (fun_app$b less$ ?v1) ?v1))) (not (lexordp$ less$ ?v0 ?v0)))) :named a6))
(assert (! (forall ((?v0 A$) (?v1 A$)) (= (member$ ?v0 (lessThan$ less$ ?v1)) (fun_app$a (fun_app$b less$ ?v0) ?v1))) :named a7))
(assert (! (forall ((?v0 A$) (?v1 A$)) (= (member$ ?v0 (greaterThan$ less$ ?v1)) (fun_app$a (fun_app$b less$ ?v1) ?v0))) :named a8))
(assert (! (forall ((?v0 A$)) (! (= (fun_app$ (rbt_less$ less$ ?v0) empty$) true) :pattern ((rbt_less$ less$ ?v0)))) :named a9))
(assert (! (forall ((?v0 A$) (?v1 Color$) (?v2 A_b_rbt$) (?v3 A$) (?v4 B$) (?v5 A_b_rbt$)) (! (= (fun_app$ (rbt_less$ less$ ?v0) (branch$ ?v1 ?v2 ?v3 ?v4 ?v5)) (and (fun_app$a (fun_app$b less$ ?v3) ?v0) (and (fun_app$ (rbt_less$ less$ ?v0) ?v2) (fun_app$ (rbt_less$ less$ ?v0) ?v5)))) :pattern ((fun_app$ (rbt_less$ less$ ?v0) (branch$ ?v1 ?v2 ?v3 ?v4 ?v5))))) :named a10))
(assert (! (forall ((?v0 A_b_rbt$)) (=> (is_rbt$ less$ ?v0) (rbt_sorted$ less$ ?v0))) :named a11))
(assert (! (forall ((?v0 A$) (?v1 A_b_rbt$)) (= (fun_app$ (rbt_less$ less$ ?v0) ?v1) (forall ((?v2 A$)) (=> (member$ ?v2 (set$ (keys$ ?v1))) (fun_app$a (fun_app$b less$ ?v2) ?v0))))) :named a12))
(assert (! (forall ((?v0 A_a_bool_fun_fun$) (?v1 A$) (?v2 A_b_rbt$) (?v3 A$) (?v4 B$) (?v5 A_b_rbt$)) (= (rbt_greater$ ?v0 ?v1 (balance$ ?v2 ?v3 ?v4 ?v5)) (and (rbt_greater$ ?v0 ?v1 ?v2) (and (rbt_greater$ ?v0 ?v1 ?v5) (fun_app$a (fun_app$b ?v0 ?v1) ?v3))))) :named a13))
(assert (! (forall ((?v0 A$) (?v1 A_b_rbt$)) (! (=> (fun_app$ (rbt_less$ less$ ?v0) ?v1) (= (rbt_lookup$ less$ ?v1 ?v0) none$)) :pattern ((rbt_lookup$ less$ ?v1 ?v0)))) :named a14))
(assert (! (forall ((?v0 A_list$) (?v1 A_list$)) (=> (lexordp$ less$ ?v0 ?v1) (lexordp_eq$ less$ ?v0 ?v1))) :named a15))
(assert (! (= (rbt_sorted$ less$ empty$) true) :named a16))
(assert (! (forall ((?v0 Color$) (?v1 A_b_rbt$) (?v2 A$) (?v3 B$) (?v4 A_b_rbt$) (?v5 Color$) (?v6 A_b_rbt$) (?v7 A$) (?v8 B$) (?v9 A_b_rbt$)) (= (= (branch$ ?v0 ?v1 ?v2 ?v3 ?v4) (branch$ ?v5 ?v6 ?v7 ?v8 ?v9)) (and (= ?v0 ?v5) (and (= ?v1 ?v6) (and (= ?v2 ?v7) (and (= ?v3 ?v8) (= ?v4 ?v9))))))) :named a17))
(check-sat)
;(get-unsat-core)
